!BIOSYM archive 3
PBC=ON
Generating .CAR file
!DATE
PBC   25.8919   25.8919   25.8919   90.0000   90.0000   90.0000   (P1)
Zn      25.891900000    5.348904053    7.597045947 XXXX 1       xx      Zn   -nan
Zn      25.891900000   20.542995947   18.294854053 XXXX 1       xx      Zn   -nan
Zn      25.891900000   20.542995947    7.597045947 XXXX 1       xx      Zn   -nan
Zn      25.891900000    5.348904053   18.294854053 XXXX 1       xx      Zn   -nan
Zn      25.891900000    5.348904053    5.348904053 XXXX 1       xx      Zn   -nan
Zn      25.891900000    5.348904053   20.542995947 XXXX 1       xx      Zn   -nan
Zn      25.891900000   20.542995947   20.542995947 XXXX 1       xx      Zn   -nan
Zn      25.891900000   20.542995947    5.348904053 XXXX 1       xx      Zn   -nan
Zn      25.891900000    7.597045947    5.348904053 XXXX 1       xx      Zn   -nan
Zn      25.891900000   18.294854053    5.348904053 XXXX 1       xx      Zn   -nan
Zn      25.891900000    7.597045947   20.542995947 XXXX 1       xx      Zn   -nan
Zn      25.891900000   18.294854053   20.542995947 XXXX 1       xx      Zn   -nan
Zn      25.891900000    7.597045947    5.348904053 XXXX 1       xx      Zn   -nan
Zn      25.891900000   18.294854053   20.542995947 XXXX 1       xx      Zn   -nan
Zn      25.891900000    7.597045947   20.542995947 XXXX 1       xx      Zn   -nan
Zn      25.891900000   18.294854053    5.348904053 XXXX 1       xx      Zn   -nan
Zn      25.891900000    5.348904053    5.348904053 XXXX 1       xx      Zn   -nan
Zn      25.891900000   20.542995947    5.348904053 XXXX 1       xx      Zn   -nan
Zn      25.891900000   20.542995947   20.542995947 XXXX 1       xx      Zn   -nan
Zn      25.891900000    5.348904053   20.542995947 XXXX 1       xx      Zn   -nan
Zn      25.891900000    5.348904053    7.597045947 XXXX 1       xx      Zn   -nan
Zn      25.891900000    5.348904053   18.294854053 XXXX 1       xx      Zn   -nan
Zn      25.891900000   20.542995947    7.597045947 XXXX 1       xx      Zn   -nan
Zn      25.891900000   20.542995947   18.294854053 XXXX 1       xx      Zn   -nan
Zn      25.891900000    7.597045947   18.294854053 XXXX 1       xx      Zn   -nan
Zn      25.891900000   18.294854053   18.294854053 XXXX 1       xx      Zn   -nan
Zn      25.891900000    7.597045947    7.597045947 XXXX 1       xx      Zn   -nan
Zn      25.891900000   18.294854053    7.597045947 XXXX 1       xx      Zn   -nan
Zn      25.891900000    7.597045947   18.294854053 XXXX 1       xx      Zn   -nan
Zn      25.891900000   18.294854053    7.597045947 XXXX 1       xx      Zn   -nan
Zn      25.891900000    7.597045947    7.597045947 XXXX 1       xx      Zn   -nan
Zn      25.891900000   18.294854053   18.294854053 XXXX 1       xx      Zn   -nan
O1      25.891900000    6.472975000    6.472975000 XXXX 1       xx      O1   -nan
O2      25.891900000   19.418925000   19.418925000 XXXX 1       xx      O2   -nan
O3      25.891900000   19.418925000    6.472975000 XXXX 1       xx      O3   -nan
O4      25.891900000    6.472975000   19.418925000 XXXX 1       xx      O4   -nan
O5      25.891900000    6.472975000    6.472975000 XXXX 1       xx      O5   -nan
O6      25.891900000   19.418925000   19.418925000 XXXX 1       xx      O6   -nan
O7      25.891900000    6.472975000   19.418925000 XXXX 1       xx      O7   -nan
O8      25.891900000   19.418925000    6.472975000 XXXX 1       xx      O8   -nan
O9      25.891900000    5.678870427    7.267079573 XXXX 1       xx      O9   -nan
O1      25.891900000   20.213029573   18.624820427 XXXX 1       xx      O1   -nan
O1      25.891900000   20.213029573    7.267079573 XXXX 1       xx      O1   -nan
O1      25.891900000    5.678870427   18.624820427 XXXX 1       xx      O1   -nan
O1      25.891900000    3.462005949    5.678870427 XXXX 1       xx      O1   -nan
O1      25.891900000    3.462005949   20.213029573 XXXX 1       xx      O1   -nan
O1      25.891900000   22.429894051   20.213029573 XXXX 1       xx      O1   -nan
O1      25.891900000   22.429894051    5.678870427 XXXX 1       xx      O1   -nan
O1      25.891900000    7.267079573    3.462005949 XXXX 1       xx      O1   -nan
O1      25.891900000   18.624820427    3.462005949 XXXX 1       xx      O1   -nan
O1      25.891900000    7.267079573   22.429894051 XXXX 1       xx      O1   -nan
O2      25.891900000   18.624820427   22.429894051 XXXX 1       xx      O2   -nan
O2      25.891900000    7.267079573    5.678870427 XXXX 1       xx      O2   -nan
O2      25.891900000   18.624820427   20.213029573 XXXX 1       xx      O2   -nan
O2      25.891900000    7.267079573   20.213029573 XXXX 1       xx      O2   -nan
O2      25.891900000   18.624820427    5.678870427 XXXX 1       xx      O2   -nan
O2      25.891900000    5.678870427    3.462005949 XXXX 1       xx      O2   -nan
O2      25.891900000   20.213029573    3.462005949 XXXX 1       xx      O2   -nan
O2      25.891900000   20.213029573   22.429894051 XXXX 1       xx      O2   -nan
O2      25.891900000    5.678870427   22.429894051 XXXX 1       xx      O2   -nan
O2      25.891900000    3.462005949    7.267079573 XXXX 1       xx      O2   -nan
O3      25.891900000    3.462005949   18.624820427 XXXX 1       xx      O3   -nan
O3      25.891900000   22.429894051    7.267079573 XXXX 1       xx      O3   -nan
O3      25.891900000   22.429894051   18.624820427 XXXX 1       xx      O3   -nan
O3      25.891900000    5.678870427   20.213029573 XXXX 1       xx      O3   -nan
O3      25.891900000   20.213029573    5.678870427 XXXX 1       xx      O3   -nan
O3      25.891900000   20.213029573   20.213029573 XXXX 1       xx      O3   -nan
O3      25.891900000    5.678870427    5.678870427 XXXX 1       xx      O3   -nan
O3      25.891900000    3.462005949   18.624820427 XXXX 1       xx      O3   -nan
O3      25.891900000    3.462005949    7.267079573 XXXX 1       xx      O3   -nan
O3      25.891900000   22.429894051    7.267079573 XXXX 1       xx      O3   -nan
O4      25.891900000   22.429894051   18.624820427 XXXX 1       xx      O4   -nan
O4      25.891900000    7.267079573   16.407955949 XXXX 1       xx      O4   -nan
O4      25.891900000   18.624820427   16.407955949 XXXX 1       xx      O4   -nan
O4      25.891900000    7.267079573    9.483944051 XXXX 1       xx      O4   -nan
O4      25.891900000   18.624820427    9.483944051 XXXX 1       xx      O4   -nan
O4      25.891900000    7.267079573   18.624820427 XXXX 1       xx      O4   -nan
O4      25.891900000   18.624820427    7.267079573 XXXX 1       xx      O4   -nan
O4      25.891900000    7.267079573    7.267079573 XXXX 1       xx      O4   -nan
O4      25.891900000   18.624820427   18.624820427 XXXX 1       xx      O4   -nan
O4      25.891900000    5.678870427   16.407955949 XXXX 1       xx      O4   -nan
O5      25.891900000   20.213029573   16.407955949 XXXX 1       xx      O5   -nan
O5      25.891900000   20.213029573    9.483944051 XXXX 1       xx      O5   -nan
O5      25.891900000    5.678870427    9.483944051 XXXX 1       xx      O5   -nan
O5      25.891900000    3.462005949   20.213029573 XXXX 1       xx      O5   -nan
O5      25.891900000    3.462005949    5.678870427 XXXX 1       xx      O5   -nan
O5      25.891900000   22.429894051   20.213029573 XXXX 1       xx      O5   -nan
O5      25.891900000   22.429894051    5.678870427 XXXX 1       xx      O5   -nan
O5      25.891900000   18.624820427    7.267079573 XXXX 1       xx      O5   -nan
O5      25.891900000    7.267079573   18.624820427 XXXX 1       xx      O5   -nan
O5      25.891900000    7.267079573    7.267079573 XXXX 1       xx      O5   -nan
O6      25.891900000   18.624820427   18.624820427 XXXX 1       xx      O6   -nan
O6      25.891900000   16.407955949    5.678870427 XXXX 1       xx      O6   -nan
O6      25.891900000   16.407955949   20.213029573 XXXX 1       xx      O6   -nan
O6      25.891900000    9.483944051   20.213029573 XXXX 1       xx      O6   -nan
O6      25.891900000    9.483944051    5.678870427 XXXX 1       xx      O6   -nan
O6      25.891900000   20.213029573    3.462005949 XXXX 1       xx      O6   -nan
O6      25.891900000    5.678870427    3.462005949 XXXX 1       xx      O6   -nan
O6      25.891900000   20.213029573   22.429894051 XXXX 1       xx      O6   -nan
O6      25.891900000    5.678870427   22.429894051 XXXX 1       xx      O6   -nan
O6      25.891900000   20.213029573    5.678870427 XXXX 1       xx      O6   -nan
O7      25.891900000    5.678870427   20.213029573 XXXX 1       xx      O7   -nan
O7      25.891900000   20.213029573   20.213029573 XXXX 1       xx      O7   -nan
O7      25.891900000    5.678870427    5.678870427 XXXX 1       xx      O7   -nan
O7      25.891900000   18.624820427    3.462005949 XXXX 1       xx      O7   -nan
O7      25.891900000    7.267079573    3.462005949 XXXX 1       xx      O7   -nan
O7      25.891900000    7.267079573   22.429894051 XXXX 1       xx      O7   -nan
O7      25.891900000   18.624820427   22.429894051 XXXX 1       xx      O7   -nan
O7      25.891900000   16.407955949    7.267079573 XXXX 1       xx      O7   -nan
O7      25.891900000   16.407955949   18.624820427 XXXX 1       xx      O7   -nan
O7      25.891900000    9.483944051    7.267079573 XXXX 1       xx      O7   -nan
O8      25.891900000    9.483944051   18.624820427 XXXX 1       xx      O8   -nan
O8      25.891900000   18.624820427   20.213029573 XXXX 1       xx      O8   -nan
O8      25.891900000    7.267079573    5.678870427 XXXX 1       xx      O8   -nan
O8      25.891900000    7.267079573   20.213029573 XXXX 1       xx      O8   -nan
O8      25.891900000   18.624820427    5.678870427 XXXX 1       xx      O8   -nan
O8      25.891900000   16.407955949   18.624820427 XXXX 1       xx      O8   -nan
O8      25.891900000   16.407955949    7.267079573 XXXX 1       xx      O8   -nan
O8      25.891900000    9.483944051    7.267079573 XXXX 1       xx      O8   -nan
O8      25.891900000    9.483944051   18.624820427 XXXX 1       xx      O8   -nan
O8      25.891900000   20.213029573   16.407955949 XXXX 1       xx      O8   -nan
O9      25.891900000    5.678870427   16.407955949 XXXX 1       xx      O9   -nan
O9      25.891900000   20.213029573    9.483944051 XXXX 1       xx      O9   -nan
O9      25.891900000    5.678870427    9.483944051 XXXX 1       xx      O9   -nan
O9      25.891900000   20.213029573   18.624820427 XXXX 1       xx      O9   -nan
O9      25.891900000    5.678870427    7.267079573 XXXX 1       xx      O9   -nan
O9      25.891900000   20.213029573    7.267079573 XXXX 1       xx      O9   -nan
O9      25.891900000    5.678870427   18.624820427 XXXX 1       xx      O9   -nan
O9      25.891900000   18.624820427   16.407955949 XXXX 1       xx      O9   -nan
O9      25.891900000    7.267079573   16.407955949 XXXX 1       xx      O9   -nan
O9      25.891900000    7.267079573    9.483944051 XXXX 1       xx      O9   -nan
O1      25.891900000   18.624820427    9.483944051 XXXX 1       xx      O1   -nan
O1      25.891900000   16.407955949   20.213029573 XXXX 1       xx      O1   -nan
O1      25.891900000   16.407955949    5.678870427 XXXX 1       xx      O1   -nan
O1      25.891900000    9.483944051   20.213029573 XXXX 1       xx      O1   -nan
O1      25.891900000    9.483944051    5.678870427 XXXX 1       xx      O1   -nan
C1      25.891900000    6.472975000    6.472975000 XXXX 1       xx      C1   -nan
C2      25.891900000   19.418925000   19.418925000 XXXX 1       xx      C2   -nan
C3      25.891900000   19.418925000    6.472975000 XXXX 1       xx      C3   -nan
C4      25.891900000    6.472975000   19.418925000 XXXX 1       xx      C4   -nan
C5      25.891900000    2.888759283    6.472975000 XXXX 1       xx      C5   -nan
C6      25.891900000    2.888759283   19.418925000 XXXX 1       xx      C6   -nan
C7      25.891900000   23.003140717   19.418925000 XXXX 1       xx      C7   -nan
C8      25.891900000   23.003140717    6.472975000 XXXX 1       xx      C8   -nan
C9      25.891900000    6.472975000    2.888759283 XXXX 1       xx      C9   -nan
C1      25.891900000   19.418925000    2.888759283 XXXX 1       xx      C1   -nan
C1      25.891900000    6.472975000   23.003140717 XXXX 1       xx      C1   -nan
C1      25.891900000   19.418925000   23.003140717 XXXX 1       xx      C1   -nan
C1      25.891900000    6.472975000    6.472975000 XXXX 1       xx      C1   -nan
C1      25.891900000   19.418925000   19.418925000 XXXX 1       xx      C1   -nan
C1      25.891900000    6.472975000   19.418925000 XXXX 1       xx      C1   -nan
C1      25.891900000   19.418925000    6.472975000 XXXX 1       xx      C1   -nan
C1      25.891900000    6.472975000    2.888759283 XXXX 1       xx      C1   -nan
C1      25.891900000   19.418925000    2.888759283 XXXX 1       xx      C1   -nan
C1      25.891900000   19.418925000   23.003140717 XXXX 1       xx      C1   -nan
C2      25.891900000    6.472975000   23.003140717 XXXX 1       xx      C2   -nan
C2      25.891900000    2.888759283    6.472975000 XXXX 1       xx      C2   -nan
C2      25.891900000    2.888759283   19.418925000 XXXX 1       xx      C2   -nan
C2      25.891900000   23.003140717    6.472975000 XXXX 1       xx      C2   -nan
C2      25.891900000   23.003140717   19.418925000 XXXX 1       xx      C2   -nan
C2      25.891900000    6.472975000   19.418925000 XXXX 1       xx      C2   -nan
C2      25.891900000   19.418925000    6.472975000 XXXX 1       xx      C2   -nan
C2      25.891900000   19.418925000   19.418925000 XXXX 1       xx      C2   -nan
C2      25.891900000    6.472975000    6.472975000 XXXX 1       xx      C2   -nan
C2      25.891900000    6.472975000   15.834709283 XXXX 1       xx      C2   -nan
C3      25.891900000   19.418925000   15.834709283 XXXX 1       xx      C3   -nan
C3      25.891900000    6.472975000   10.057190717 XXXX 1       xx      C3   -nan
C3      25.891900000   19.418925000   10.057190717 XXXX 1       xx      C3   -nan
C3      25.891900000    6.472975000   19.418925000 XXXX 1       xx      C3   -nan
C3      25.891900000   19.418925000    6.472975000 XXXX 1       xx      C3   -nan
C3      25.891900000    6.472975000    6.472975000 XXXX 1       xx      C3   -nan
C3      25.891900000   19.418925000   19.418925000 XXXX 1       xx      C3   -nan
C3      25.891900000    6.472975000   15.834709283 XXXX 1       xx      C3   -nan
C3      25.891900000   19.418925000   15.834709283 XXXX 1       xx      C3   -nan
C3      25.891900000   19.418925000   10.057190717 XXXX 1       xx      C3   -nan
C4      25.891900000    6.472975000   10.057190717 XXXX 1       xx      C4   -nan
C4      25.891900000   15.834709283    6.472975000 XXXX 1       xx      C4   -nan
C4      25.891900000   15.834709283   19.418925000 XXXX 1       xx      C4   -nan
C4      25.891900000   10.057190717   19.418925000 XXXX 1       xx      C4   -nan
C4      25.891900000   10.057190717    6.472975000 XXXX 1       xx      C4   -nan
C4      25.891900000   15.834709283    6.472975000 XXXX 1       xx      C4   -nan
C4      25.891900000   15.834709283   19.418925000 XXXX 1       xx      C4   -nan
C4      25.891900000   10.057190717    6.472975000 XXXX 1       xx      C4   -nan
C4      25.891900000   10.057190717   19.418925000 XXXX 1       xx      C4   -nan
C4      25.891900000    6.472975000    6.472975000 XXXX 1       xx      C4   -nan
C5      25.891900000   19.418925000   19.418925000 XXXX 1       xx      C5   -nan
C5      25.891900000   19.418925000    6.472975000 XXXX 1       xx      C5   -nan
C5      25.891900000    6.472975000   19.418925000 XXXX 1       xx      C5   -nan
C5      25.891900000    1.387546921    6.472975000 XXXX 1       xx      C5   -nan
C5      25.891900000    1.387546921   19.418925000 XXXX 1       xx      C5   -nan
C5      25.891900000   24.504353079   19.418925000 XXXX 1       xx      C5   -nan
C5      25.891900000   24.504353079    6.472975000 XXXX 1       xx      C5   -nan
C5      25.891900000    6.472975000    1.387546921 XXXX 1       xx      C5   -nan
C5      25.891900000   19.418925000    1.387546921 XXXX 1       xx      C5   -nan
C5      25.891900000    6.472975000   24.504353079 XXXX 1       xx      C5   -nan
C6      25.891900000   19.418925000   24.504353079 XXXX 1       xx      C6   -nan
C6      25.891900000    6.472975000    6.472975000 XXXX 1       xx      C6   -nan
C6      25.891900000   19.418925000   19.418925000 XXXX 1       xx      C6   -nan
C6      25.891900000    6.472975000   19.418925000 XXXX 1       xx      C6   -nan
C6      25.891900000   19.418925000    6.472975000 XXXX 1       xx      C6   -nan
C6      25.891900000    6.472975000    1.387546921 XXXX 1       xx      C6   -nan
C6      25.891900000   19.418925000    1.387546921 XXXX 1       xx      C6   -nan
C6      25.891900000   19.418925000   24.504353079 XXXX 1       xx      C6   -nan
C6      25.891900000    6.472975000   24.504353079 XXXX 1       xx      C6   -nan
C6      25.891900000    1.387546921    6.472975000 XXXX 1       xx      C6   -nan
C7      25.891900000    1.387546921   19.418925000 XXXX 1       xx      C7   -nan
C7      25.891900000   24.504353079    6.472975000 XXXX 1       xx      C7   -nan
C7      25.891900000   24.504353079   19.418925000 XXXX 1       xx      C7   -nan
C7      25.891900000    6.472975000   19.418925000 XXXX 1       xx      C7   -nan
C7      25.891900000   19.418925000    6.472975000 XXXX 1       xx      C7   -nan
C7      25.891900000   19.418925000   19.418925000 XXXX 1       xx      C7   -nan
C7      25.891900000    6.472975000    6.472975000 XXXX 1       xx      C7   -nan
C7      25.891900000    6.472975000   14.333496921 XXXX 1       xx      C7   -nan
C7      25.891900000   19.418925000   14.333496921 XXXX 1       xx      C7   -nan
C7      25.891900000    6.472975000   11.558403079 XXXX 1       xx      C7   -nan
C8      25.891900000   19.418925000   11.558403079 XXXX 1       xx      C8   -nan
C8      25.891900000    6.472975000   19.418925000 XXXX 1       xx      C8   -nan
C8      25.891900000   19.418925000    6.472975000 XXXX 1       xx      C8   -nan
C8      25.891900000    6.472975000    6.472975000 XXXX 1       xx      C8   -nan
C8      25.891900000   19.418925000   19.418925000 XXXX 1       xx      C8   -nan
C8      25.891900000    6.472975000   14.333496921 XXXX 1       xx      C8   -nan
C8      25.891900000   19.418925000   14.333496921 XXXX 1       xx      C8   -nan
C8      25.891900000   19.418925000   11.558403079 XXXX 1       xx      C8   -nan
C8      25.891900000    6.472975000   11.558403079 XXXX 1       xx      C8   -nan
C8      25.891900000   14.333496921    6.472975000 XXXX 1       xx      C8   -nan
C9      25.891900000   14.333496921   19.418925000 XXXX 1       xx      C9   -nan
C9      25.891900000   11.558403079   19.418925000 XXXX 1       xx      C9   -nan
C9      25.891900000   11.558403079    6.472975000 XXXX 1       xx      C9   -nan
C9      25.891900000   14.333496921    6.472975000 XXXX 1       xx      C9   -nan
C9      25.891900000   14.333496921   19.418925000 XXXX 1       xx      C9   -nan
C9      25.891900000   11.558403079    6.472975000 XXXX 1       xx      C9   -nan
C9      25.891900000   11.558403079   19.418925000 XXXX 1       xx      C9   -nan
C9      25.891900000    5.624756356    7.321193644 XXXX 1       xx      C9   -nan
C9      25.891900000   20.267143644   18.570706356 XXXX 1       xx      C9   -nan
C9      25.891900000   20.267143644    7.321193644 XXXX 1       xx      C9   -nan
C1      25.891900000    5.624756356   18.570706356 XXXX 1       xx      C1   -nan
C1      25.891900000    0.694679677    5.624756356 XXXX 1       xx      C1   -nan
C1      25.891900000    0.694679677   20.267143644 XXXX 1       xx      C1   -nan
C1      25.891900000   25.197220323   20.267143644 XXXX 1       xx      C1   -nan
C1      25.891900000   25.197220323    5.624756356 XXXX 1       xx      C1   -nan
C1      25.891900000    7.321193644    0.694679677 XXXX 1       xx      C1   -nan
C1      25.891900000   18.570706356    0.694679677 XXXX 1       xx      C1   -nan
C1      25.891900000    7.321193644   25.197220323 XXXX 1       xx      C1   -nan
C1      25.891900000   18.570706356   25.197220323 XXXX 1       xx      C1   -nan
C1      25.891900000    7.321193644    5.624756356 XXXX 1       xx      C1   -nan
C1      25.891900000   18.570706356   20.267143644 XXXX 1       xx      C1   -nan
C1      25.891900000    7.321193644   20.267143644 XXXX 1       xx      C1   -nan
C1      25.891900000   18.570706356    5.624756356 XXXX 1       xx      C1   -nan
C1      25.891900000    5.624756356    0.694679677 XXXX 1       xx      C1   -nan
C1      25.891900000   20.267143644    0.694679677 XXXX 1       xx      C1   -nan
C1      25.891900000   20.267143644   25.197220323 XXXX 1       xx      C1   -nan
C1      25.891900000    5.624756356   25.197220323 XXXX 1       xx      C1   -nan
C1      25.891900000    0.694679677    7.321193644 XXXX 1       xx      C1   -nan
C1      25.891900000    0.694679677   18.570706356 XXXX 1       xx      C1   -nan
C1      25.891900000   25.197220323    7.321193644 XXXX 1       xx      C1   -nan
C1      25.891900000   25.197220323   18.570706356 XXXX 1       xx      C1   -nan
C1      25.891900000    5.624756356   20.267143644 XXXX 1       xx      C1   -nan
C1      25.891900000   20.267143644    5.624756356 XXXX 1       xx      C1   -nan
C1      25.891900000   20.267143644   20.267143644 XXXX 1       xx      C1   -nan
C1      25.891900000    5.624756356    5.624756356 XXXX 1       xx      C1   -nan
C1      25.891900000    0.694679677   18.570706356 XXXX 1       xx      C1   -nan
C1      25.891900000    0.694679677    7.321193644 XXXX 1       xx      C1   -nan
C1      25.891900000   25.197220323    7.321193644 XXXX 1       xx      C1   -nan
C1      25.891900000   25.197220323   18.570706356 XXXX 1       xx      C1   -nan
C1      25.891900000    7.321193644   13.640629677 XXXX 1       xx      C1   -nan
C1      25.891900000   18.570706356   13.640629677 XXXX 1       xx      C1   -nan
C1      25.891900000    7.321193644   12.251270323 XXXX 1       xx      C1   -nan
C1      25.891900000   18.570706356   12.251270323 XXXX 1       xx      C1   -nan
C1      25.891900000    7.321193644   18.570706356 XXXX 1       xx      C1   -nan
C1      25.891900000   18.570706356    7.321193644 XXXX 1       xx      C1   -nan
C1      25.891900000    7.321193644    7.321193644 XXXX 1       xx      C1   -nan
C1      25.891900000   18.570706356   18.570706356 XXXX 1       xx      C1   -nan
C1      25.891900000    5.624756356   13.640629677 XXXX 1       xx      C1   -nan
C1      25.891900000   20.267143644   13.640629677 XXXX 1       xx      C1   -nan
C1      25.891900000   20.267143644   12.251270323 XXXX 1       xx      C1   -nan
C1      25.891900000    5.624756356   12.251270323 XXXX 1       xx      C1   -nan
C1      25.891900000    0.694679677   20.267143644 XXXX 1       xx      C1   -nan
C1      25.891900000    0.694679677    5.624756356 XXXX 1       xx      C1   -nan
C1      25.891900000   25.197220323   20.267143644 XXXX 1       xx      C1   -nan
C1      25.891900000   25.197220323    5.624756356 XXXX 1       xx      C1   -nan
C1      25.891900000   18.570706356    7.321193644 XXXX 1       xx      C1   -nan
C1      25.891900000    7.321193644   18.570706356 XXXX 1       xx      C1   -nan
C1      25.891900000    7.321193644    7.321193644 XXXX 1       xx      C1   -nan
C1      25.891900000   18.570706356   18.570706356 XXXX 1       xx      C1   -nan
C1      25.891900000   13.640629677    5.624756356 XXXX 1       xx      C1   -nan
C1      25.891900000   13.640629677   20.267143644 XXXX 1       xx      C1   -nan
C1      25.891900000   12.251270323   20.267143644 XXXX 1       xx      C1   -nan
C1      25.891900000   12.251270323    5.624756356 XXXX 1       xx      C1   -nan
C1      25.891900000   20.267143644    0.694679677 XXXX 1       xx      C1   -nan
C1      25.891900000    5.624756356    0.694679677 XXXX 1       xx      C1   -nan
C1      25.891900000   20.267143644   25.197220323 XXXX 1       xx      C1   -nan
C1      25.891900000    5.624756356   25.197220323 XXXX 1       xx      C1   -nan
C1      25.891900000   20.267143644    5.624756356 XXXX 1       xx      C1   -nan
C1      25.891900000    5.624756356   20.267143644 XXXX 1       xx      C1   -nan
C1      25.891900000   20.267143644   20.267143644 XXXX 1       xx      C1   -nan
C1      25.891900000    5.624756356    5.624756356 XXXX 1       xx      C1   -nan
C1      25.891900000   18.570706356    0.694679677 XXXX 1       xx      C1   -nan
C1      25.891900000    7.321193644    0.694679677 XXXX 1       xx      C1   -nan
C1      25.891900000    7.321193644   25.197220323 XXXX 1       xx      C1   -nan
C1      25.891900000   18.570706356   25.197220323 XXXX 1       xx      C1   -nan
C1      25.891900000   13.640629677    7.321193644 XXXX 1       xx      C1   -nan
C1      25.891900000   13.640629677   18.570706356 XXXX 1       xx      C1   -nan
C1      25.891900000   12.251270323    7.321193644 XXXX 1       xx      C1   -nan
C1      25.891900000   12.251270323   18.570706356 XXXX 1       xx      C1   -nan
C1      25.891900000   18.570706356   20.267143644 XXXX 1       xx      C1   -nan
C1      25.891900000    7.321193644    5.624756356 XXXX 1       xx      C1   -nan
C1      25.891900000    7.321193644   20.267143644 XXXX 1       xx      C1   -nan
C1      25.891900000   18.570706356    5.624756356 XXXX 1       xx      C1   -nan
C1      25.891900000   13.640629677   18.570706356 XXXX 1       xx      C1   -nan
C1      25.891900000   13.640629677    7.321193644 XXXX 1       xx      C1   -nan
C1      25.891900000   12.251270323    7.321193644 XXXX 1       xx      C1   -nan
C1      25.891900000   12.251270323   18.570706356 XXXX 1       xx      C1   -nan
C1      25.891900000   20.267143644   13.640629677 XXXX 1       xx      C1   -nan
C1      25.891900000    5.624756356   13.640629677 XXXX 1       xx      C1   -nan
C1      25.891900000   20.267143644   12.251270323 XXXX 1       xx      C1   -nan
C1      25.891900000    5.624756356   12.251270323 XXXX 1       xx      C1   -nan
C1      25.891900000   20.267143644   18.570706356 XXXX 1       xx      C1   -nan
C1      25.891900000    5.624756356    7.321193644 XXXX 1       xx      C1   -nan
C1      25.891900000   20.267143644    7.321193644 XXXX 1       xx      C1   -nan
C1      25.891900000    5.624756356   18.570706356 XXXX 1       xx      C1   -nan
C1      25.891900000   18.570706356   13.640629677 XXXX 1       xx      C1   -nan
C1      25.891900000    7.321193644   13.640629677 XXXX 1       xx      C1   -nan
C1      25.891900000    7.321193644   12.251270323 XXXX 1       xx      C1   -nan
C1      25.891900000   18.570706356   12.251270323 XXXX 1       xx      C1   -nan
C1      25.891900000   13.640629677   20.267143644 XXXX 1       xx      C1   -nan
C1      25.891900000   13.640629677    5.624756356 XXXX 1       xx      C1   -nan
C1      25.891900000   12.251270323   20.267143644 XXXX 1       xx      C1   -nan
C1      25.891900000   12.251270323    5.624756356 XXXX 1       xx      C1   -nan
H1      25.891900000    5.043742120    7.902207880 XXXX 1       xx      H1   -nan
H2      25.891900000   20.848157880   17.989692120 XXXX 1       xx      H2   -nan
H3      25.891900000   20.848157880    7.902207880 XXXX 1       xx      H3   -nan
H4      25.891900000    5.043742120   17.989692120 XXXX 1       xx      H4   -nan
H5      25.891900000    1.170313880    5.043742120 XXXX 1       xx      H5   -nan
H6      25.891900000    1.170313880   20.848157880 XXXX 1       xx      H6   -nan
H7      25.891900000   24.721586120   20.848157880 XXXX 1       xx      H7   -nan
H8      25.891900000   24.721586120    5.043742120 XXXX 1       xx      H8   -nan
H9      25.891900000    7.902207880    1.170313880 XXXX 1       xx      H9   -nan
H1      25.891900000   17.989692120    1.170313880 XXXX 1       xx      H1   -nan
H1      25.891900000    7.902207880   24.721586120 XXXX 1       xx      H1   -nan
H1      25.891900000   17.989692120   24.721586120 XXXX 1       xx      H1   -nan
H1      25.891900000    7.902207880    5.043742120 XXXX 1       xx      H1   -nan
H1      25.891900000   17.989692120   20.848157880 XXXX 1       xx      H1   -nan
H1      25.891900000    7.902207880   20.848157880 XXXX 1       xx      H1   -nan
H1      25.891900000   17.989692120    5.043742120 XXXX 1       xx      H1   -nan
H1      25.891900000    5.043742120    1.170313880 XXXX 1       xx      H1   -nan
H1      25.891900000   20.848157880    1.170313880 XXXX 1       xx      H1   -nan
H1      25.891900000   20.848157880   24.721586120 XXXX 1       xx      H1   -nan
H2      25.891900000    5.043742120   24.721586120 XXXX 1       xx      H2   -nan
H2      25.891900000    1.170313880    7.902207880 XXXX 1       xx      H2   -nan
H2      25.891900000    1.170313880   17.989692120 XXXX 1       xx      H2   -nan
H2      25.891900000   24.721586120    7.902207880 XXXX 1       xx      H2   -nan
H2      25.891900000   24.721586120   17.989692120 XXXX 1       xx      H2   -nan
H2      25.891900000    5.043742120   20.848157880 XXXX 1       xx      H2   -nan
H2      25.891900000   20.848157880    5.043742120 XXXX 1       xx      H2   -nan
H2      25.891900000   20.848157880   20.848157880 XXXX 1       xx      H2   -nan
H2      25.891900000    5.043742120    5.043742120 XXXX 1       xx      H2   -nan
H2      25.891900000    1.170313880   17.989692120 XXXX 1       xx      H2   -nan
H3      25.891900000    1.170313880    7.902207880 XXXX 1       xx      H3   -nan
H3      25.891900000   24.721586120    7.902207880 XXXX 1       xx      H3   -nan
H3      25.891900000   24.721586120   17.989692120 XXXX 1       xx      H3   -nan
H3      25.891900000    7.902207880   14.116263880 XXXX 1       xx      H3   -nan
H3      25.891900000   17.989692120   14.116263880 XXXX 1       xx      H3   -nan
H3      25.891900000    7.902207880   11.775636120 XXXX 1       xx      H3   -nan
H3      25.891900000   17.989692120   11.775636120 XXXX 1       xx      H3   -nan
H3      25.891900000    7.902207880   17.989692120 XXXX 1       xx      H3   -nan
H3      25.891900000   17.989692120    7.902207880 XXXX 1       xx      H3   -nan
H3      25.891900000    7.902207880    7.902207880 XXXX 1       xx      H3   -nan
H4      25.891900000   17.989692120   17.989692120 XXXX 1       xx      H4   -nan
H4      25.891900000    5.043742120   14.116263880 XXXX 1       xx      H4   -nan
H4      25.891900000   20.848157880   14.116263880 XXXX 1       xx      H4   -nan
H4      25.891900000   20.848157880   11.775636120 XXXX 1       xx      H4   -nan
H4      25.891900000    5.043742120   11.775636120 XXXX 1       xx      H4   -nan
H4      25.891900000    1.170313880   20.848157880 XXXX 1       xx      H4   -nan
H4      25.891900000    1.170313880    5.043742120 XXXX 1       xx      H4   -nan
H4      25.891900000   24.721586120   20.848157880 XXXX 1       xx      H4   -nan
H4      25.891900000   24.721586120    5.043742120 XXXX 1       xx      H4   -nan
H4      25.891900000   17.989692120    7.902207880 XXXX 1       xx      H4   -nan
H5      25.891900000    7.902207880   17.989692120 XXXX 1       xx      H5   -nan
H5      25.891900000    7.902207880    7.902207880 XXXX 1       xx      H5   -nan
H5      25.891900000   17.989692120   17.989692120 XXXX 1       xx      H5   -nan
H5      25.891900000   14.116263880    5.043742120 XXXX 1       xx      H5   -nan
H5      25.891900000   14.116263880   20.848157880 XXXX 1       xx      H5   -nan
H5      25.891900000   11.775636120   20.848157880 XXXX 1       xx      H5   -nan
H5      25.891900000   11.775636120    5.043742120 XXXX 1       xx      H5   -nan
H5      25.891900000   20.848157880    1.170313880 XXXX 1       xx      H5   -nan
H5      25.891900000    5.043742120    1.170313880 XXXX 1       xx      H5   -nan
H5      25.891900000   20.848157880   24.721586120 XXXX 1       xx      H5   -nan
H6      25.891900000    5.043742120   24.721586120 XXXX 1       xx      H6   -nan
H6      25.891900000   20.848157880    5.043742120 XXXX 1       xx      H6   -nan
H6      25.891900000    5.043742120   20.848157880 XXXX 1       xx      H6   -nan
H6      25.891900000   20.848157880   20.848157880 XXXX 1       xx      H6   -nan
H6      25.891900000    5.043742120    5.043742120 XXXX 1       xx      H6   -nan
H6      25.891900000   17.989692120    1.170313880 XXXX 1       xx      H6   -nan
H6      25.891900000    7.902207880    1.170313880 XXXX 1       xx      H6   -nan
H6      25.891900000    7.902207880   24.721586120 XXXX 1       xx      H6   -nan
H6      25.891900000   17.989692120   24.721586120 XXXX 1       xx      H6   -nan
H6      25.891900000   14.116263880    7.902207880 XXXX 1       xx      H6   -nan
H7      25.891900000   14.116263880   17.989692120 XXXX 1       xx      H7   -nan
H7      25.891900000   11.775636120    7.902207880 XXXX 1       xx      H7   -nan
H7      25.891900000   11.775636120   17.989692120 XXXX 1       xx      H7   -nan
H7      25.891900000   17.989692120   20.848157880 XXXX 1       xx      H7   -nan
H7      25.891900000    7.902207880    5.043742120 XXXX 1       xx      H7   -nan
H7      25.891900000    7.902207880   20.848157880 XXXX 1       xx      H7   -nan
H7      25.891900000   17.989692120    5.043742120 XXXX 1       xx      H7   -nan
H7      25.891900000   14.116263880   17.989692120 XXXX 1       xx      H7   -nan
H7      25.891900000   14.116263880    7.902207880 XXXX 1       xx      H7   -nan
H7      25.891900000   11.775636120    7.902207880 XXXX 1       xx      H7   -nan
H8      25.891900000   11.775636120   17.989692120 XXXX 1       xx      H8   -nan
H8      25.891900000   20.848157880   14.116263880 XXXX 1       xx      H8   -nan
H8      25.891900000    5.043742120   14.116263880 XXXX 1       xx      H8   -nan
H8      25.891900000   20.848157880   11.775636120 XXXX 1       xx      H8   -nan
H8      25.891900000    5.043742120   11.775636120 XXXX 1       xx      H8   -nan
H8      25.891900000   20.848157880   17.989692120 XXXX 1       xx      H8   -nan
H8      25.891900000    5.043742120    7.902207880 XXXX 1       xx      H8   -nan
H8      25.891900000   20.848157880    7.902207880 XXXX 1       xx      H8   -nan
H8      25.891900000    5.043742120   17.989692120 XXXX 1       xx      H8   -nan
H8      25.891900000   17.989692120   14.116263880 XXXX 1       xx      H8   -nan
H9      25.891900000    7.902207880   14.116263880 XXXX 1       xx      H9   -nan
H9      25.891900000    7.902207880   11.775636120 XXXX 1       xx      H9   -nan
H9      25.891900000   17.989692120   11.775636120 XXXX 1       xx      H9   -nan
H9      25.891900000   14.116263880   20.848157880 XXXX 1       xx      H9   -nan
H9      25.891900000   14.116263880    5.043742120 XXXX 1       xx      H9   -nan
H9      25.891900000   11.775636120   20.848157880 XXXX 1       xx      H9   -nan
H9      25.891900000   11.775636120    5.043742120 XXXX 1       xx      H9   -nan
end
end